cost: 735.18
Route 1:           0   45   43   36   47    9   25   10   12   32   27   19    8   31   14    0
Route 2:           0   17    3   46   26   41   16   37    1   35    0
Route 3:           0   23   11   42   40   21    5   34    7   15   49   30   48   18    0
Route 4:           0   33   38   28   24   22   29   20   13    6    4   39   44   50    2    0
